r=1; % r deve essere >0
s=9; % s deve essere >r
n=9; % numero di righe del cruciverba     
m=10; % numero di colonne del cruciverba  
schema=[| 1,0,0,0,1,0,0,0,0,1       %schema del cruciverba dove le caselle nere 
        | 0,0,0,0,0,0,0,0,0,0       % sono identificate dal numero 1
        | 0,0,1,0,0,1,0,0,0,0
        | 0,0,1,1,0,0,0,0,1,0
        | 0,1,0,0,0,0,0,0,0,0
        | 0,0,0,0,0,0,1,0,0,0
        | 0,0,0,0,0,0,0,0,0,0
        | 0,0,0,0,1,0,0,1,0,0
        | 0,0,1,0,0,0,0,0,0,0
        |];
orizzontali=[| 1,1,2,3          % definizioni orizzontali 
             | 4,1,6,4
             | 8,2,1,10
             | 11,3,1,2
             | 12,3,4,2
             | 13,3,7,4
             | 14,4,1,2
             | 15,4,5,4
             | 17,5,3,8
             | 20,6,1,6
             | 22,6,8,3
             | 23,7,1,10
             | 25,8,1,4
             | 26,8,6,2
             | 27,8,9,2
             | 28,9,1,2
             | 29,9,4,7
            |];
no=17;             %numero definizioni orizzontali
verticali=[| 1,1,2,4        % definizioni verticali 
           | 2,1,3,2
           | 3,1,4,3
           | 4,1,6,2
           | 5,1,7,5
           | 6,1,8,7
           | 7,1,9,3
           | 8,2,1,8
           | 9,2,5,6
           | 10,2,10,8
           | 16,4,6,6
           | 17,5,3,4
           | 18,5,4,5
           | 19,5,9,5
           | 21,6,2,4
           | 24,7,7,3
          |];
nv=16;            %numero definizioni verticali
S={1,2,4,5,6,7,10,14,16,18,21,24,25,27,28,35,42,50,54,60,72,80,96,108,120,140,192,216,240,250,280,480,500};    %possibili definizioni